decision_x1=[0,7];
decision_x2=[0,7];
decision_x3=[0,7];
decision_x4=[0,7];
decision_x5=[0,7];
decision_x6=[0,7];
decision_x7=[0,7];
decision_x8=[0,7];
decision_x9=[0,7];
decision_x10=[0,7];
decision_x11=[0,7];
decision_x12=[0,7];
decision_x13=[0,7];
decision_x14=[0,7];
decision_x15=[0,7];
decision_x16=[0,7];
random_y1=[0,7];
random_y2=[0,7];
random_y3=[0,7];
random_y4=[0,7];
random_y5=[0,7];
random_y6=[0,7];
random_y7=[0,7];
constraint_x2_x1=[
0,0,5.4|
0,1,2.4|
0,2,8.4|
0,3,8.2|
0,4,3.4|
0,5,5.6|
0,6,8.4|
0,7,6.9|
1,0,2.7|
1,1,1.2|
1,2,9.7|
1,3,1.8|
1,4,0.042|
1,5,6.3|
1,6,6.8|
1,7,1.6|
2,0,5.8|
2,1,6.7|
2,2,4.6|
2,3,8.6|
2,4,4.3|
2,5,8.4|
2,6,2.6|
2,7,9.8|
3,0,8.2|
3,1,7.5|
3,2,1.4|
3,3,5|
3,4,6.8|
3,5,1.4|
3,6,8.6|
3,7,8.4|
4,0,2.8|
4,1,7.6|
4,2,0.056|
4,3,5.8|
4,4,3.4|
4,5,1.1|
4,6,1.9|
4,7,8.8|
5,0,6.3|
5,1,1.6|
5,2,5.1|
5,3,9|
5,4,8.8|
5,5,2.8|
5,6,7.2|
5,7,0.93|
6,0,7.6|
6,1,4.7|
6,2,8.5|
6,3,0.72|
6,4,6.7|
6,5,2.7|
6,6,9|
6,7,0.38|
7,0,4|
7,1,1.7|
7,2,2.4|
7,3,7.1|
7,4,7.4|
7,5,5.2|
7,6,3|
7,7,0.11|
];
constraint_x3_x2=[
0,0,1.3|
0,1,6.3|
0,2,6.1|
0,3,1.7|
0,4,5.4|
0,5,5.8|
0,6,2.8|
0,7,9.7|
1,0,7.3|
1,1,2.3|
1,2,2.8|
1,3,6|
1,4,9.7|
1,5,5.8|
1,6,1.7|
1,7,3.2|
2,0,6.9|
2,1,3.8|
2,2,4.8|
2,3,6.5|
2,4,1.5|
2,5,9.7|
2,6,1.5|
2,7,2|
3,0,9.5|
3,1,9.8|
3,2,7.2|
3,3,3|
3,4,6.4|
3,5,6.7|
3,6,8.1|
3,7,2|
4,0,9.4|
4,1,7|
4,2,4.3|
4,3,0.38|
4,4,4|
4,5,0.58|
4,6,1.7|
4,7,9.4|
5,0,8.3|
5,1,4|
5,2,7.8|
5,3,2.8|
5,4,8.5|
5,5,7.5|
5,6,0.66|
5,7,1.5|
6,0,4.8|
6,1,2|
6,2,4.7|
6,3,2.6|
6,4,3.6|
6,5,1.8|
6,6,4.6|
6,7,7.8|
7,0,4.5|
7,1,9.2|
7,2,7.6|
7,3,8|
7,4,4.1|
7,5,5|
7,6,1.7|
7,7,8.7|
];
constraint_x4_x3=[
0,0,5.9|
0,1,6.9|
0,2,5.8|
0,3,2.3|
0,4,5|
0,5,4.9|
0,6,5.8|
0,7,0.75|
1,0,4.4|
1,1,6.6|
1,2,1.8|
1,3,0.23|
1,4,7.3|
1,5,3.9|
1,6,9.2|
1,7,9.6|
2,0,2.9|
2,1,8.5|
2,2,6.7|
2,3,4.5|
2,4,6.4|
2,5,4.8|
2,6,7.6|
2,7,5.6|
3,0,3.2|
3,1,5.6|
3,2,5.1|
3,3,3.7|
3,4,4.1|
3,5,5.5|
3,6,2.2|
3,7,4.6|
4,0,2.3|
4,1,8.9|
4,2,9.8|
4,3,5.8|
4,4,8.1|
4,5,6.6|
4,6,2.7|
4,7,0.87|
5,0,3.2|
5,1,9.2|
5,2,6.1|
5,3,9.8|
5,4,2.1|
5,5,6.4|
5,6,1.1|
5,7,3.2|
6,0,6.4|
6,1,0.32|
6,2,0.37|
6,3,9|
6,4,9.3|
6,5,4.4|
6,6,5.4|
6,7,0.022|
7,0,3.7|
7,1,6.2|
7,2,2.1|
7,3,0.98|
7,4,0.28|
7,5,8.6|
7,6,6.6|
7,7,1.1|
];
constraint_x5_x1=[
0,0,2.8|
0,1,0.6|
0,2,5.7|
0,3,7.8|
0,4,2.3|
0,5,9.2|
0,6,2.5|
0,7,2.7|
1,0,2.5|
1,1,2.9|
1,2,5.9|
1,3,1.5|
1,4,0.15|
1,5,5.8|
1,6,1.4|
1,7,5.3|
2,0,3.4|
2,1,5.5|
2,2,3.3|
2,3,0.75|
2,4,0.35|
2,5,9.3|
2,6,4.3|
2,7,4.8|
3,0,3.1|
3,1,5.8|
3,2,0.64|
3,3,4.8|
3,4,1.6|
3,5,2.2|
3,6,6.1|
3,7,1.8|
4,0,2.1|
4,1,5.9|
4,2,5.7|
4,3,0.21|
4,4,5.3|
4,5,3.9|
4,6,6.4|
4,7,9|
5,0,1.2|
5,1,6.1|
5,2,5.9|
5,3,1.8|
5,4,8.1|
5,5,3.3|
5,6,8.6|
5,7,3.9|
6,0,3.2|
6,1,2.7|
6,2,3.8|
6,3,2.5|
6,4,9.2|
6,5,0.78|
6,6,9.7|
6,7,6.2|
7,0,2.6|
7,1,5.5|
7,2,8|
7,3,5|
7,4,8.6|
7,5,0.3|
7,6,3.8|
7,7,0.15|
];
constraint_x6_x2=[
0,0,9.7|
0,1,0.93|
0,2,3.9|
0,3,2.9|
0,4,7|
0,5,5.2|
0,6,9.5|
0,7,9.9|
1,0,4.8|
1,1,8.5|
1,2,9.5|
1,3,7.4|
1,4,4.6|
1,5,5.6|
1,6,8|
1,7,5.6|
2,0,7.3|
2,1,9.1|
2,2,3.5|
2,3,9.3|
2,4,0.32|
2,5,8.6|
2,6,8.9|
2,7,2.4|
3,0,5.3|
3,1,3.9|
3,2,9.5|
3,3,5|
3,4,7.7|
3,5,7|
3,6,0.54|
3,7,9.1|
4,0,5.6|
4,1,7|
4,2,9.6|
4,3,2.7|
4,4,1|
4,5,2|
4,6,0.59|
4,7,6.6|
5,0,0.048|
5,1,8.9|
5,2,8.3|
5,3,4.9|
5,4,0.91|
5,5,4.8|
5,6,7.1|
5,7,4.9|
6,0,8.7|
6,1,1.3|
6,2,3.4|
6,3,9.6|
6,4,4.2|
6,5,9.1|
6,6,8|
6,7,1.7|
7,0,5.7|
7,1,4.6|
7,2,7.3|
7,3,1.3|
7,4,9.1|
7,5,1.7|
7,6,5.8|
7,7,7.3|
];
constraint_x6_x5=[
0,0,0.63|
0,1,6.3|
0,2,3.4|
0,3,4.6|
0,4,0.3|
0,5,7.6|
0,6,0.28|
0,7,7.4|
1,0,5.3|
1,1,6.5|
1,2,6.8|
1,3,7.5|
1,4,0.72|
1,5,2|
1,6,7.7|
1,7,6.1|
2,0,7.5|
2,1,7.4|
2,2,0.89|
2,3,0.61|
2,4,9|
2,5,3.9|
2,6,2.7|
2,7,8.8|
3,0,8.1|
3,1,5.5|
3,2,1.6|
3,3,3.1|
3,4,3.1|
3,5,1.7|
3,6,4.2|
3,7,6.2|
4,0,8.4|
4,1,1.1|
4,2,1.9|
4,3,3.2|
4,4,8|
4,5,2.1|
4,6,2.8|
4,7,4.4|
5,0,8.9|
5,1,3.5|
5,2,4|
5,3,4.8|
5,4,8.8|
5,5,8.3|
5,6,4|
5,7,2.7|
6,0,3.3|
6,1,8.5|
6,2,6|
6,3,1.4|
6,4,6.3|
6,5,6.4|
6,6,3.8|
6,7,4.5|
7,0,8.4|
7,1,10|
7,2,6.3|
7,3,8.4|
7,4,6.6|
7,5,3|
7,6,5|
7,7,9.5|
];
constraint_x7_x3=[
0,0,5.2|
0,1,8.5|
0,2,6.5|
0,3,8.5|
0,4,1.6|
0,5,6.1|
0,6,6.8|
0,7,2.5|
1,0,2|
1,1,8.3|
1,2,0.82|
1,3,2.4|
1,4,7.3|
1,5,3.2|
1,6,0.85|
1,7,8.4|
2,0,2.5|
2,1,0.23|
2,2,2.5|
2,3,6|
2,4,5.2|
2,5,6.7|
2,6,9|
2,7,9.8|
3,0,3.6|
3,1,5.6|
3,2,2.1|
3,3,5.3|
3,4,4.7|
3,5,2.4|
3,6,6.4|
3,7,2.5|
4,0,5.6|
4,1,6.8|
4,2,5|
4,3,3.9|
4,4,9.7|
4,5,3.3|
4,6,8.2|
4,7,8.7|
5,0,0.3|
5,1,9.9|
5,2,5.3|
5,3,9.7|
5,4,5.1|
5,5,8.6|
5,6,2|
5,7,2.4|
6,0,5.5|
6,1,9.7|
6,2,0.45|
6,3,1.4|
6,4,9.1|
6,5,4|
6,6,6.4|
6,7,0.41|
7,0,9.8|
7,1,7.4|
7,2,0.5|
7,3,5.7|
7,4,1.7|
7,5,2.6|
7,6,2.4|
7,7,7.9|
];
constraint_x7_x6=[
0,0,4.4|
0,1,8.2|
0,2,0.6|
0,3,10|
0,4,6.9|
0,5,8.5|
0,6,2.8|
0,7,6|
1,0,0.66|
1,1,6.4|
1,2,5.6|
1,3,3.6|
1,4,5.2|
1,5,6.8|
1,6,5.8|
1,7,7.4|
2,0,1|
2,1,7|
2,2,3.8|
2,3,8.5|
2,4,5.7|
2,5,2.9|
2,6,7.7|
2,7,7.3|
3,0,3.3|
3,1,6.5|
3,2,1.1|
3,3,4.7|
3,4,7|
3,5,6.7|
3,6,0.81|
3,7,5.1|
4,0,4.6|
4,1,6.5|
4,2,9.3|
4,3,6.2|
4,4,7.1|
4,5,0.68|
4,6,6.5|
4,7,5.3|
5,0,6.3|
5,1,7.4|
5,2,0.11|
5,3,9.3|
5,4,4.9|
5,5,1.1|
5,6,1.2|
5,7,6.2|
6,0,7.2|
6,1,3.5|
6,2,6.2|
6,3,4.6|
6,4,0.75|
6,5,4.3|
6,6,5.8|
6,7,0.027|
7,0,7.9|
7,1,7.4|
7,2,7.8|
7,3,6.3|
7,4,1.8|
7,5,6.5|
7,6,0.4|
7,7,3.3|
];
constraint_x8_x4=[
0,0,4.5|
0,1,5.7|
0,2,9.7|
0,3,0.071|
0,4,9.8|
0,5,3.4|
0,6,0.58|
0,7,5.3|
1,0,6.2|
1,1,7|
1,2,6.9|
1,3,9.5|
1,4,3.1|
1,5,8.8|
1,6,4.5|
1,7,2.2|
2,0,4.5|
2,1,3.7|
2,2,1.2|
2,3,8.3|
2,4,0.98|
2,5,3.2|
2,6,2.8|
2,7,1.2|
3,0,3.3|
3,1,5.9|
3,2,3.5|
3,3,2.3|
3,4,9.5|
3,5,4.5|
3,6,8.4|
3,7,8.8|
4,0,8.4|
4,1,8.3|
4,2,8.5|
4,3,0.93|
4,4,8.8|
4,5,0.084|
4,6,1.8|
4,7,3|
5,0,0.85|
5,1,6.2|
5,2,7|
5,3,1.4|
5,4,1.2|
5,5,9.5|
5,6,1.7|
5,7,5.5|
6,0,5.5|
6,1,5.6|
6,2,5.8|
6,3,7.7|
6,4,0.95|
6,5,9.1|
6,6,1.5|
6,7,4.9|
7,0,8.4|
7,1,2.2|
7,2,2.4|
7,3,2.3|
7,4,9.5|
7,5,1.4|
7,6,7.7|
7,7,8.8|
];
constraint_x8_x7=[
0,0,6.5|
0,1,7.3|
0,2,3.3|
0,3,5.8|
0,4,6.6|
0,5,0.52|
0,6,0.11|
0,7,7.6|
1,0,1.4|
1,1,3.2|
1,2,1.8|
1,3,5.1|
1,4,8.2|
1,5,8.6|
1,6,3.7|
1,7,0.32|
2,0,1.4|
2,1,5.2|
2,2,8.6|
2,3,4.4|
2,4,9.3|
2,5,6.2|
2,6,7.9|
2,7,9.2|
3,0,2.6|
3,1,3.7|
3,2,5.1|
3,3,4.9|
3,4,5|
3,5,6.3|
3,6,3.9|
3,7,5.2|
4,0,5.4|
4,1,8.1|
4,2,4.4|
4,3,1.8|
4,4,2.8|
4,5,0.6|
4,6,4.8|
4,7,4.6|
5,0,0.56|
5,1,8.7|
5,2,2|
5,3,5.9|
5,4,1.6|
5,5,6.7|
5,6,5.5|
5,7,9.7|
6,0,5.5|
6,1,4|
6,2,4.3|
6,3,2.6|
6,4,1.3|
6,5,5.2|
6,6,7.5|
6,7,3.4|
7,0,0.84|
7,1,3.2|
7,2,2.5|
7,3,1.9|
7,4,3.2|
7,5,7|
7,6,7.6|
7,7,5.2|
];
constraint_x9_x5=[
0,0,8.8|
0,1,9.5|
0,2,0.7|
0,3,8.2|
0,4,3.3|
0,5,0.2|
0,6,0.9|
0,7,2.9|
1,0,0.73|
1,1,9.7|
1,2,8.7|
1,3,5.7|
1,4,3.3|
1,5,8.1|
1,6,2.9|
1,7,4.9|
2,0,9.1|
2,1,3.8|
2,2,7.9|
2,3,8.7|
2,4,3|
2,5,7.5|
2,6,7.6|
2,7,9.6|
3,0,9.3|
3,1,0.5|
3,2,7.6|
3,3,2.2|
3,4,1.5|
3,5,1.9|
3,6,2.2|
3,7,2.9|
4,0,4.8|
4,1,6.3|
4,2,9.6|
4,3,0.81|
4,4,4.5|
4,5,4.7|
4,6,6.7|
4,7,3.8|
5,0,9.6|
5,1,2.8|
5,2,1.1|
5,3,8.6|
5,4,3.3|
5,5,5|
5,6,6|
5,7,3.5|
6,0,4|
6,1,7.7|
6,2,8.8|
6,3,2.1|
6,4,4.5|
6,5,4.8|
6,6,8.1|
6,7,4.2|
7,0,9|
7,1,4.9|
7,2,1.2|
7,3,1.5|
7,4,9.3|
7,5,3.6|
7,6,9.2|
7,7,9.4|
];
constraint_x10_x6=[
0,0,5.6|
0,1,8.4|
0,2,9|
0,3,3|
0,4,6.8|
0,5,3.1|
0,6,5.1|
0,7,2.3|
1,0,2.2|
1,1,2.2|
1,2,7.3|
1,3,8|
1,4,8.2|
1,5,9.1|
1,6,3.4|
1,7,7.5|
2,0,9.3|
2,1,8.5|
2,2,8.9|
2,3,4.2|
2,4,0.97|
2,5,0.35|
2,6,7.7|
2,7,5.3|
3,0,7.7|
3,1,2.2|
3,2,8.8|
3,3,7.9|
3,4,1.6|
3,5,1.8|
3,6,6.4|
3,7,7.5|
4,0,2.5|
4,1,3.3|
4,2,7.5|
4,3,2|
4,4,5.8|
4,5,6.6|
4,6,2.7|
4,7,7.8|
5,0,5.3|
5,1,4.9|
5,2,7.2|
5,3,2.8|
5,4,5.3|
5,5,0.087|
5,6,3.6|
5,7,1.1|
6,0,7.1|
6,1,3|
6,2,8.7|
6,3,4.1|
6,4,0.68|
6,5,0.65|
6,6,4.8|
6,7,2|
7,0,8.4|
7,1,0.77|
7,2,2.5|
7,3,6.5|
7,4,3.8|
7,5,4.8|
7,6,7.7|
7,7,0.28|
];
constraint_x10_x9=[
0,0,3.8|
0,1,4.1|
0,2,0.0068|
0,3,5.3|
0,4,3|
0,5,8.1|
0,6,6.9|
0,7,4.4|
1,0,0.39|
1,1,0.63|
1,2,4.8|
1,3,1.7|
1,4,9.5|
1,5,8.4|
1,6,9.1|
1,7,8.4|
2,0,1|
2,1,7.2|
2,2,5.1|
2,3,3.5|
2,4,3|
2,5,1.1|
2,6,1.5|
2,7,7.6|
3,0,4.8|
3,1,0.55|
3,2,5.2|
3,3,8.3|
3,4,3.8|
3,5,5.4|
3,6,2.9|
3,7,1.5|
4,0,9.3|
4,1,2.9|
4,2,6.3|
4,3,7.8|
4,4,3.6|
4,5,7.1|
4,6,2.8|
4,7,9.3|
5,0,7.5|
5,1,7.3|
5,2,1.6|
5,3,8.9|
5,4,4.1|
5,5,8.5|
5,6,5.9|
5,7,0.61|
6,0,2.3|
6,1,9.4|
6,2,7|
6,3,6.9|
6,4,3.7|
6,5,2.7|
6,6,9.3|
6,7,6.5|
7,0,6|
7,1,0.4|
7,2,9.6|
7,3,9.4|
7,4,0.41|
7,5,2.4|
7,6,9.7|
7,7,3.3|
];
constraint_x11_x7=[
0,0,7|
0,1,2.3|
0,2,5.9|
0,3,6.7|
0,4,2.7|
0,5,2.1|
0,6,5.3|
0,7,8.1|
1,0,9.9|
1,1,1.9|
1,2,5|
1,3,7.1|
1,4,2.5|
1,5,3.7|
1,6,3.9|
1,7,0.51|
2,0,6.2|
2,1,5.9|
2,2,2.8|
2,3,2.5|
2,4,0.62|
2,5,9.2|
2,6,9.5|
2,7,1.5|
3,0,1.3|
3,1,9.6|
3,2,1.6|
3,3,1.6|
3,4,2.7|
3,5,3.9|
3,6,1.5|
3,7,8.2|
4,0,7.3|
4,1,8.4|
4,2,4.7|
4,3,9.3|
4,4,1.5|
4,5,9.1|
4,6,3.5|
4,7,0.37|
5,0,8.3|
5,1,5.5|
5,2,7.5|
5,3,6|
5,4,6.9|
5,5,2.6|
5,6,9.6|
5,7,6|
6,0,4.2|
6,1,6.1|
6,2,8.7|
6,3,6|
6,4,3.6|
6,5,8.2|
6,6,5.5|
6,7,8.8|
7,0,6.9|
7,1,5.5|
7,2,9.7|
7,3,4.4|
7,4,8.7|
7,5,4.4|
7,6,1.7|
7,7,2.1|
];
constraint_x11_x10=[
0,0,7.7|
0,1,4.8|
0,2,6.9|
0,3,4.4|
0,4,4.5|
0,5,4.6|
0,6,0.73|
0,7,1.2|
1,0,9.5|
1,1,6.2|
1,2,2.6|
1,3,6.2|
1,4,0.21|
1,5,2|
1,6,2.7|
1,7,5.4|
2,0,0.54|
2,1,3.4|
2,2,6.2|
2,3,2.9|
2,4,4.3|
2,5,6.1|
2,6,0.55|
2,7,1.5|
3,0,3.6|
3,1,4.3|
3,2,8.8|
3,3,9.3|
3,4,5.8|
3,5,6.7|
3,6,3.4|
3,7,8.1|
4,0,4.8|
4,1,7.2|
4,2,1.6|
4,3,4.8|
4,4,8.2|
4,5,9.1|
4,6,0.2|
4,7,1.7|
5,0,8.9|
5,1,6.9|
5,2,4.5|
5,3,4|
5,4,7.4|
5,5,2.4|
5,6,3|
5,7,0.29|
6,0,4.2|
6,1,8.9|
6,2,3.2|
6,3,7.5|
6,4,6.4|
6,5,6.2|
6,6,0.36|
6,7,4.1|
7,0,1.9|
7,1,7.4|
7,2,5|
7,3,3.2|
7,4,8.4|
7,5,6.2|
7,6,2.4|
7,7,3.7|
];
constraint_x12_x8=[
0,0,1.8|
0,1,1.7|
0,2,0.3|
0,3,3|
0,4,6.3|
0,5,10|
0,6,4.9|
0,7,7.1|
1,0,2|
1,1,1.8|
1,2,0.099|
1,3,5.2|
1,4,1.1|
1,5,2.2|
1,6,8|
1,7,7.7|
2,0,8.8|
2,1,3.8|
2,2,2.5|
2,3,2.9|
2,4,0.7|
2,5,0.45|
2,6,9.6|
2,7,1.7|
3,0,5.6|
3,1,7.9|
3,2,6.7|
3,3,9|
3,4,8.7|
3,5,6.5|
3,6,6.9|
3,7,9.5|
4,0,4.7|
4,1,7.8|
4,2,1.6|
4,3,4.3|
4,4,8|
4,5,0.039|
4,6,1.2|
4,7,9.5|
5,0,4.5|
5,1,8.2|
5,2,3.5|
5,3,3.7|
5,4,4.4|
5,5,6.7|
5,6,7.4|
5,7,2.5|
6,0,4.1|
6,1,7.5|
6,2,1.7|
6,3,4.4|
6,4,2.9|
6,5,5.1|
6,6,5.2|
6,7,6.2|
7,0,2.2|
7,1,5.9|
7,2,6.1|
7,3,2.3|
7,4,1.4|
7,5,1.8|
7,6,7.6|
7,7,4.3|
];
constraint_x12_x11=[
0,0,7.4|
0,1,8.4|
0,2,1.2|
0,3,8.6|
0,4,9.9|
0,5,2.7|
0,6,1.5|
0,7,1.4|
1,0,3.6|
1,1,4.5|
1,2,0.98|
1,3,1.7|
1,4,4.9|
1,5,7.5|
1,6,1.4|
1,7,7.5|
2,0,9.5|
2,1,9.4|
2,2,4.7|
2,3,6.5|
2,4,6|
2,5,2.2|
2,6,3.6|
2,7,8.3|
3,0,5.7|
3,1,6.1|
3,2,6|
3,3,7.5|
3,4,5.9|
3,5,4|
3,6,1.6|
3,7,2.9|
4,0,4.5|
4,1,6.6|
4,2,10|
4,3,6.3|
4,4,4.8|
4,5,3.1|
4,6,1.9|
4,7,2.1|
5,0,8.4|
5,1,7.5|
5,2,5.6|
5,3,5.7|
5,4,2.9|
5,5,4.3|
5,6,2|
5,7,1.8|
6,0,3.2|
6,1,6|
6,2,1.1|
6,3,3.5|
6,4,5.5|
6,5,6.1|
6,6,6.5|
6,7,0.9|
7,0,2.4|
7,1,9.6|
7,2,8.6|
7,3,1.6|
7,4,4.5|
7,5,6.5|
7,6,2.5|
7,7,5.6|
];
constraint_x13_x9=[
0,0,6.2|
0,1,5.6|
0,2,6|
0,3,7.3|
0,4,7.5|
0,5,5|
0,6,0.39|
0,7,5.7|
1,0,4.4|
1,1,9.4|
1,2,4.4|
1,3,6.4|
1,4,6.1|
1,5,9.5|
1,6,6|
1,7,2.1|
2,0,5.7|
2,1,4.8|
2,2,1.6|
2,3,6.5|
2,4,1.8|
2,5,4.9|
2,6,1.2|
2,7,9.2|
3,0,7.1|
3,1,6.3|
3,2,7.4|
3,3,3.7|
3,4,9.7|
3,5,8.3|
3,6,1|
3,7,4.4|
4,0,6.4|
4,1,6.1|
4,2,0.096|
4,3,9|
4,4,5.2|
4,5,4.9|
4,6,5.7|
4,7,0.8|
5,0,5.2|
5,1,6|
5,2,3.8|
5,3,4.6|
5,4,7.5|
5,5,0.58|
5,6,0.17|
5,7,1.7|
6,0,4.5|
6,1,8.4|
6,2,4.6|
6,3,7.2|
6,4,2|
6,5,0.95|
6,6,1.5|
6,7,7.4|
7,0,1.7|
7,1,5.4|
7,2,7.4|
7,3,9.1|
7,4,5.9|
7,5,9.4|
7,6,9.6|
7,7,6.7|
];
constraint_x14_x10=[
0,0,3.7|
0,1,4.1|
0,2,5.5|
0,3,9.2|
0,4,10|
0,5,1|
0,6,3.5|
0,7,1|
1,0,0.31|
1,1,9.8|
1,2,3|
1,3,1.3|
1,4,2.3|
1,5,1.2|
1,6,3.5|
1,7,6.7|
2,0,3.8|
2,1,1.6|
2,2,8.8|
2,3,8.1|
2,4,5.4|
2,5,1.9|
2,6,5.9|
2,7,9.9|
3,0,3.7|
3,1,6.8|
3,2,6.8|
3,3,4.8|
3,4,2.4|
3,5,4.3|
3,6,5|
3,7,2.3|
4,0,9|
4,1,6.6|
4,2,5.6|
4,3,3.1|
4,4,4.2|
4,5,9.8|
4,6,8.3|
4,7,2.3|
5,0,6.7|
5,1,7.1|
5,2,1.2|
5,3,3.1|
5,4,0.19|
5,5,2.4|
5,6,8.3|
5,7,6.3|
6,0,5.9|
6,1,6.3|
6,2,3.2|
6,3,1.7|
6,4,2.2|
6,5,1.1|
6,6,3.3|
6,7,9|
7,0,8.7|
7,1,2.5|
7,2,1.9|
7,3,9.5|
7,4,2.8|
7,5,8.2|
7,6,3.9|
7,7,0.77|
];
constraint_x14_x13=[
0,0,1.7|
0,1,0.12|
0,2,6.2|
0,3,1.2|
0,4,3|
0,5,4.8|
0,6,9.4|
0,7,0.63|
1,0,0.48|
1,1,3.2|
1,2,3.3|
1,3,5|
1,4,0.54|
1,5,7.5|
1,6,5.9|
1,7,6|
2,0,4.8|
2,1,7|
2,2,8|
2,3,7|
2,4,8.2|
2,5,5.3|
2,6,7.4|
2,7,9.3|
3,0,4.2|
3,1,8.5|
3,2,2.3|
3,3,8.5|
3,4,1.5|
3,5,0.095|
3,6,0.48|
3,7,7.8|
4,0,0.92|
4,1,9.4|
4,2,4.9|
4,3,1.4|
4,4,6.8|
4,5,3.8|
4,6,3.7|
4,7,5.4|
5,0,5.7|
5,1,6.7|
5,2,6.1|
5,3,9.3|
5,4,3|
5,5,7.8|
5,6,9.1|
5,7,2.6|
6,0,6.5|
6,1,5.8|
6,2,8.8|
6,3,6.4|
6,4,3.3|
6,5,3.3|
6,6,1.9|
6,7,9.1|
7,0,2.5|
7,1,4.3|
7,2,5|
7,3,2.2|
7,4,0.94|
7,5,9.4|
7,6,7.6|
7,7,1.6|
];
constraint_x15_x11=[
0,0,0.77|
0,1,0.37|
0,2,5.8|
0,3,2.4|
0,4,7|
0,5,0.02|
0,6,9.9|
0,7,4.2|
1,0,6.6|
1,1,4.7|
1,2,9.1|
1,3,3.8|
1,4,9.5|
1,5,8.2|
1,6,4.8|
1,7,8.1|
2,0,0.57|
2,1,8.5|
2,2,7.2|
2,3,0.21|
2,4,7.9|
2,5,4.5|
2,6,9.6|
2,7,7.6|
3,0,9.2|
3,1,3.8|
3,2,5.4|
3,3,8|
3,4,1.9|
3,5,7.5|
3,6,9.1|
3,7,2.5|
4,0,1.9|
4,1,7.4|
4,2,5.1|
4,3,0.92|
4,4,8.9|
4,5,4.9|
4,6,9.4|
4,7,2.2|
5,0,9.4|
5,1,8.7|
5,2,2.3|
5,3,0.58|
5,4,5.7|
5,5,6.1|
5,6,5.6|
5,7,9.8|
6,0,1.7|
6,1,2.3|
6,2,6.4|
6,3,1|
6,4,2.8|
6,5,1.4|
6,6,0.9|
6,7,0.82|
7,0,6.7|
7,1,0.32|
7,2,2.8|
7,3,4.2|
7,4,9.6|
7,5,3.3|
7,6,5|
7,7,1.6|
];
constraint_x15_x14=[
0,0,6.1|
0,1,8.3|
0,2,9.4|
0,3,3.9|
0,4,6.2|
0,5,7.7|
0,6,8.6|
0,7,9.2|
1,0,7.8|
1,1,8|
1,2,6.6|
1,3,9.8|
1,4,8.4|
1,5,1.9|
1,6,5.5|
1,7,1.4|
2,0,4.9|
2,1,2.9|
2,2,1.9|
2,3,7.6|
2,4,2.3|
2,5,5.1|
2,6,2.3|
2,7,2.4|
3,0,6.3|
3,1,6.2|
3,2,0.98|
3,3,3.6|
3,4,7.6|
3,5,1.2|
3,6,3.1|
3,7,8|
4,0,4.5|
4,1,6.3|
4,2,6.4|
4,3,2.5|
4,4,9.9|
4,5,9.6|
4,6,1.7|
4,7,4.3|
5,0,5.8|
5,1,0.81|
5,2,9.3|
5,3,9.2|
5,4,1.7|
5,5,0.91|
5,6,4.5|
5,7,5.1|
6,0,1|
6,1,4.6|
6,2,2.9|
6,3,0.82|
6,4,9|
6,5,6.8|
6,6,1.3|
6,7,9.9|
7,0,1.6|
7,1,4.1|
7,2,2.3|
7,3,1.3|
7,4,8.2|
7,5,9.2|
7,6,1.1|
7,7,2.9|
];
constraint_x16_x12=[
0,0,2.9|
0,1,5.8|
0,2,2.1|
0,3,10|
0,4,0.37|
0,5,7.6|
0,6,9.4|
0,7,9.5|
1,0,0.1|
1,1,9.7|
1,2,6.2|
1,3,1.1|
1,4,1.3|
1,5,1.9|
1,6,0.2|
1,7,2.5|
2,0,1.7|
2,1,6.8|
2,2,9.1|
2,3,1.3|
2,4,0.45|
2,5,5.8|
2,6,6.6|
2,7,5.4|
3,0,5.8|
3,1,3|
3,2,8.2|
3,3,4.6|
3,4,9.6|
3,5,0.44|
3,6,4.7|
3,7,6.4|
4,0,1.6|
4,1,5.9|
4,2,9.8|
4,3,5.7|
4,4,6.2|
4,5,5.3|
4,6,3.4|
4,7,6.8|
5,0,9.8|
5,1,1.8|
5,2,3.7|
5,3,6.9|
5,4,3.4|
5,5,2.6|
5,6,4.1|
5,7,5.8|
6,0,1.5|
6,1,1.4|
6,2,9.5|
6,3,8|
6,4,7.8|
6,5,1.4|
6,6,0.15|
6,7,6.6|
7,0,3.9|
7,1,0.38|
7,2,9.4|
7,3,0.35|
7,4,7.3|
7,5,1.8|
7,6,0.6|
7,7,7.2|
];
constraint_x16_x15=[
0,0,9.9|
0,1,6.2|
0,2,1.1|
0,3,6|
0,4,3.8|
0,5,9.2|
0,6,7.2|
0,7,1.5|
1,0,8|
1,1,5.1|
1,2,2.9|
1,3,2.6|
1,4,9.2|
1,5,3.3|
1,6,0.14|
1,7,3.4|
2,0,7.9|
2,1,6.9|
2,2,9.6|
2,3,4.6|
2,4,7.9|
2,5,8.4|
2,6,10|
2,7,9|
3,0,8.6|
3,1,8.7|
3,2,2.9|
3,3,9.9|
3,4,6.7|
3,5,5.3|
3,6,9.7|
3,7,3.9|
4,0,9.7|
4,1,8.9|
4,2,5.6|
4,3,5.7|
4,4,6.1|
4,5,6.4|
4,6,3.5|
4,7,2.7|
5,0,4.7|
5,1,8.4|
5,2,0.14|
5,3,10|
5,4,6.2|
5,5,0.0037|
5,6,9.5|
5,7,1.5|
6,0,8.6|
6,1,0.83|
6,2,7.4|
6,3,9.2|
6,4,9.3|
6,5,0.013|
6,6,0.68|
6,7,8.9|
7,0,3|
7,1,4.6|
7,2,8.9|
7,3,8.5|
7,4,6.4|
7,5,7.6|
7,6,7.8|
7,7,2.9|
];
constraint_x1_y1=[
0,0,5.7|
0,1,3.7|
0,2,9.1|
0,3,1.9|
0,4,3.4|
0,5,7.3|
0,6,4.8|
0,7,5.2|
1,0,3|
1,1,2.4|
1,2,8|
1,3,2|
1,4,2|
1,5,1.2|
1,6,5.6|
1,7,8.9|
2,0,9.7|
2,1,0.65|
2,2,9.6|
2,3,9.1|
2,4,7.4|
2,5,8.2|
2,6,5.8|
2,7,8.1|
3,0,6.9|
3,1,9.4|
3,2,6.6|
3,3,8.2|
3,4,3.3|
3,5,1.4|
3,6,8.6|
3,7,2.3|
4,0,0.14|
4,1,0.43|
4,2,4.6|
4,3,8|
4,4,2.7|
4,5,9.2|
4,6,4.8|
4,7,2.2|
5,0,1.6|
5,1,0.76|
5,2,10|
5,3,4.2|
5,4,6.7|
5,5,5.8|
5,6,8.9|
5,7,5.9|
6,0,2|
6,1,6.2|
6,2,4|
6,3,7.2|
6,4,1.6|
6,5,7.7|
6,6,1.8|
6,7,7.8|
7,0,8.7|
7,1,8|
7,2,6.7|
7,3,9.7|
7,4,7.1|
7,5,0.26|
7,6,3|
7,7,1.2|
];
constraint_x2_y2=[
0,0,8|
0,1,5.7|
0,2,3.4|
0,3,6.3|
0,4,9.2|
0,5,2.7|
0,6,6.6|
0,7,9.8|
1,0,6.4|
1,1,3.3|
1,2,4.6|
1,3,5.4|
1,4,9.3|
1,5,0.16|
1,6,3.5|
1,7,7.5|
2,0,1.2|
2,1,9.3|
2,2,8.5|
2,3,3.4|
2,4,1.4|
2,5,1|
2,6,8.7|
2,7,4.8|
3,0,10|
3,1,9.4|
3,2,7.5|
3,3,6.4|
3,4,5.4|
3,5,2.7|
3,6,2.8|
3,7,9.7|
4,0,8.3|
4,1,6.1|
4,2,6.3|
4,3,2|
4,4,6.9|
4,5,8.2|
4,6,6|
4,7,0.17|
5,0,8.1|
5,1,4.1|
5,2,8.8|
5,3,2.2|
5,4,6.2|
5,5,4.8|
5,6,9|
5,7,0.53|
6,0,4|
6,1,3.7|
6,2,1.4|
6,3,3.3|
6,4,5.9|
6,5,8.3|
6,6,2.4|
6,7,0.36|
7,0,7.6|
7,1,5.6|
7,2,0.2|
7,3,2.9|
7,4,6.3|
7,5,9.8|
7,6,3|
7,7,1.1|
];
constraint_x3_y3=[
0,0,3.3|
0,1,3.6|
0,2,8.6|
0,3,0.091|
0,4,4.5|
0,5,9.5|
0,6,5.5|
0,7,8.5|
1,0,9.1|
1,1,2.9|
1,2,2.8|
1,3,2.9|
1,4,2.9|
1,5,3.3|
1,6,9|
1,7,6.2|
2,0,8.8|
2,1,3.6|
2,2,7.6|
2,3,7.6|
2,4,1.7|
2,5,1.1|
2,6,4.8|
2,7,6.7|
3,0,6.6|
3,1,5.2|
3,2,0.35|
3,3,2.9|
3,4,3|
3,5,5.2|
3,6,2.9|
3,7,8.9|
4,0,4.2|
4,1,4.7|
4,2,5.5|
4,3,5.4|
4,4,8.3|
4,5,8.2|
4,6,10|
4,7,0.013|
5,0,7.3|
5,1,0.099|
5,2,7.1|
5,3,4.2|
5,4,6|
5,5,1.6|
5,6,4.8|
5,7,1.7|
6,0,2.4|
6,1,1|
6,2,8.3|
6,3,1.9|
6,4,8.3|
6,5,3|
6,6,7.3|
6,7,3.3|
7,0,3.5|
7,1,4.4|
7,2,0.32|
7,3,6.1|
7,4,5.4|
7,5,7.7|
7,6,7.2|
7,7,1.4|
];
constraint_x4_y4=[
0,0,4.7|
0,1,2.8|
0,2,1.9|
0,3,2.8|
0,4,2.4|
0,5,9.6|
0,6,3.6|
0,7,2|
1,0,0.43|
1,1,9.6|
1,2,8.6|
1,3,4.9|
1,4,2.9|
1,5,6.4|
1,6,9.1|
1,7,8.2|
2,0,6.7|
2,1,9.4|
2,2,6.8|
2,3,5.5|
2,4,8.8|
2,5,6|
2,6,6.8|
2,7,9.4|
3,0,1.7|
3,1,9.1|
3,2,4.5|
3,3,7.4|
3,4,4.3|
3,5,2.5|
3,6,6.3|
3,7,2.1|
4,0,6.6|
4,1,0.39|
4,2,3.2|
4,3,1.2|
4,4,6.8|
4,5,4.9|
4,6,3.4|
4,7,2|
5,0,2.3|
5,1,4.2|
5,2,0.27|
5,3,2.5|
5,4,8.3|
5,5,9.1|
5,6,1.5|
5,7,4.1|
6,0,9.6|
6,1,7.2|
6,2,5|
6,3,9.6|
6,4,7.6|
6,5,6.6|
6,6,1.3|
6,7,3.8|
7,0,3.8|
7,1,6.3|
7,2,5.3|
7,3,1.6|
7,4,6.2|
7,5,8.6|
7,6,9.5|
7,7,9.2|
];
constraint_x5_y5=[
0,0,0.97|
0,1,4.8|
0,2,1.1|
0,3,6.4|
0,4,2.6|
0,5,5.2|
0,6,4.9|
0,7,1.2|
1,0,4.9|
1,1,2.7|
1,2,3.2|
1,3,3.2|
1,4,8.5|
1,5,7.8|
1,6,0.13|
1,7,5.9|
2,0,7.1|
2,1,0.025|
2,2,2.3|
2,3,9.7|
2,4,8.1|
2,5,4.3|
2,6,6.3|
2,7,1.3|
3,0,5.3|
3,1,7.7|
3,2,1.7|
3,3,4.6|
3,4,1.1|
3,5,6.1|
3,6,8.6|
3,7,4.1|
4,0,1.5|
4,1,3|
4,2,6.3|
4,3,6.7|
4,4,9.5|
4,5,7.8|
4,6,4.9|
4,7,1.8|
5,0,6.4|
5,1,0.093|
5,2,5.2|
5,3,2.4|
5,4,1.7|
5,5,4.1|
5,6,1|
5,7,5.7|
6,0,5|
6,1,3.8|
6,2,0.32|
6,3,5.7|
6,4,7.6|
6,5,2.3|
6,6,4.4|
6,7,5.1|
7,0,9.2|
7,1,5.1|
7,2,7.7|
7,3,0.63|
7,4,4.5|
7,5,0.96|
7,6,6.4|
7,7,3.4|
];
constraint_x6_y6=[
0,0,8.9|
0,1,4.9|
0,2,5.5|
0,3,5.3|
0,4,2.2|
0,5,4|
0,6,9|
0,7,0.8|
1,0,4.2|
1,1,0.9|
1,2,0.37|
1,3,3|
1,4,4.4|
1,5,4.1|
1,6,4.4|
1,7,6|
2,0,5.1|
2,1,6.4|
2,2,4|
2,3,4.1|
2,4,8|
2,5,3|
2,6,2.2|
2,7,3|
3,0,3.3|
3,1,3.5|
3,2,0.33|
3,3,7.4|
3,4,5.3|
3,5,5.5|
3,6,7.6|
3,7,3.1|
4,0,6.4|
4,1,7.7|
4,2,5.2|
4,3,8.5|
4,4,8.8|
4,5,2.9|
4,6,8.8|
4,7,5.1|
5,0,2.1|
5,1,9.3|
5,2,2.6|
5,3,3.3|
5,4,0.22|
5,5,5.5|
5,6,5.2|
5,7,3.8|
6,0,3.5|
6,1,4.1|
6,2,5.4|
6,3,3.5|
6,4,0.17|
6,5,1.8|
6,6,4|
6,7,9.8|
7,0,1.6|
7,1,9.7|
7,2,4.1|
7,3,7.7|
7,4,9|
7,5,1.9|
7,6,7.5|
7,7,7.7|
];
constraint_x7_y7=[
0,0,6.2|
0,1,2.8|
0,2,7.2|
0,3,6.8|
0,4,6.9|
0,5,5.9|
0,6,9.5|
0,7,7.9|
1,0,9.3|
1,1,6.5|
1,2,5.7|
1,3,6.9|
1,4,7.9|
1,5,9.4|
1,6,3.8|
1,7,3.6|
2,0,4.6|
2,1,6.9|
2,2,0.58|
2,3,3.2|
2,4,5|
2,5,4|
2,6,9.7|
2,7,8.3|
3,0,7.1|
3,1,8.2|
3,2,1.9|
3,3,2.2|
3,4,5.1|
3,5,5.5|
3,6,9.4|
3,7,6.6|
4,0,0.85|
4,1,5.6|
4,2,7.1|
4,3,7.5|
4,4,0.94|
4,5,2.5|
4,6,1.1|
4,7,7.6|
5,0,8.9|
5,1,7|
5,2,0.44|
5,3,3.5|
5,4,3.1|
5,5,7.2|
5,6,6.9|
5,7,9.8|
6,0,6.5|
6,1,1.3|
6,2,4.8|
6,3,0.94|
6,4,7.2|
6,5,7.4|
6,6,0.88|
6,7,0.87|
7,0,3.9|
7,1,3|
7,2,2.6|
7,3,0.43|
7,4,4.7|
7,5,2.3|
7,6,3.1|
7,7,0.56|
];
initial_distribution_y1=[0.16,0.0049,0.16,0.11,0.21,0.095,0.024,0.24];
initial_distribution_y2=[0.18,0.092,0.13,0.18,0.039,0.061,0.19,0.14];
initial_distribution_y3=[0.014,0.13,0.065,0.2,0.036,0.27,0.036,0.25];
initial_distribution_y4=[0.21,0.2,0.044,0.092,0.18,0.15,0.0049,0.11];
initial_distribution_y5=[0.28,0.052,0.096,0.1,0.21,0.11,0.1,0.043];
initial_distribution_y6=[0.14,0.081,0.11,0.19,0.043,0.077,0.15,0.2];
initial_distribution_y7=[0.21,0.084,0.096,0.08,0.14,0.16,0.052,0.18];
transition_y1=[
0.11,0.16,0.13,0.076,0.16,0.17,0.017,0.17|
0.1,0.21,0.22,0.096,0.11,0.044,0.1,0.11|
0.046,0.19,0.014,0.19,0.064,0.32,0.14,0.032|
0.086,0.11,0.12,0.16,0.076,0.12,0.19,0.14|
0.24,0.067,0.12,0.0072,0.32,0.16,0.014,0.078|
0.23,0.21,0.028,0.029,0.059,0.064,0.23,0.15|
0.057,0.072,0.086,0.18,0.18,0.17,0.14,0.1|
0.2,0.032,0.025,0.19,0.08,0.18,0.12,0.18|
];
transition_y2=[
0.15,0.16,0.17,0.049,0.16,0.18,0.03,0.095|
0.053,0.11,0.024,0.13,0.2,0.15,0.27,0.069|
0.11,0.045,0.25,0.13,0.027,0.16,0.0052,0.27|
0.043,0.13,0.07,0.22,0.22,0.099,0.15,0.072|
0.014,0.2,0.19,0.058,0.23,0.19,0.12,0.0026|
0.17,0.015,0.012,0.17,0.093,0.13,0.22,0.18|
0.14,0.16,0.043,0.19,0.064,0.13,0.19,0.083|
0.16,0.23,0.13,0.24,0.1,0.0044,0.072,0.054|
];
transition_y3=[
0.17,0.14,0.11,0.15,0.18,0.098,0.16,0.0026|
0.13,0.28,0.0084,0.057,0.0043,0.18,0.29,0.046|
0.15,0.0031,0.18,0.19,0.1,0.13,0.083,0.16|
0.21,0.035,0.074,0.15,0.18,0.1,0.15,0.099|
0.04,0.11,0.087,0.11,0.21,0.069,0.23,0.14|
0.069,0.21,0.16,0.05,0.1,0.085,0.084,0.24|
0.17,0.062,0.13,0.17,0.15,0.081,0.17,0.059|
0.13,0.08,0.17,0.35,0.013,0.016,0.049,0.19|
];
transition_y4=[
0.12,0.0072,0.016,0.26,0.082,0.15,0.16,0.21|
0.1,0.14,0.15,0.18,0.1,0.093,0.08,0.16|
0.34,0.15,0.034,0.32,0.02,0.072,0.041,0.025|
0.11,0.16,0.14,0.057,0.11,0.17,0.13,0.13|
0.012,0.11,0.18,0.18,0.18,0.088,0.16,0.089|
0.18,0.11,0.14,0.06,0.083,0.15,0.19,0.083|
0.2,0.15,0.27,0.14,0.098,0.041,0.073,0.034|
0.15,0.17,0.2,0.1,0.2,0.017,0.043,0.13|
];
transition_y5=[
0.17,0.092,0.18,0.057,0.18,0.038,0.15,0.12|
0.049,0.19,0.0087,0.12,0.16,0.14,0.15,0.18|
0.057,0.14,0.2,0.12,0.17,0.13,0.17,0.024|
0.052,0.13,0.2,0.12,0.036,0.15,0.11,0.2|
0.14,0.18,0.1,0.063,0.29,0.011,0.2,0.0067|
0.1,0.037,0.053,0.26,0.18,0.26,0.052,0.062|
0.0037,0.14,0.14,0.051,0.27,0.22,0.12,0.057|
0.25,0.036,0.029,0.13,0.21,0.29,0.03,0.022|
];
transition_y6=[
0.12,0.011,0.02,0.2,0.21,0.18,0.14,0.13|
0.078,0.18,0.11,0.22,0.2,0.15,0.012,0.054|
0.083,0.18,0.096,0.04,0.11,0.29,0.1,0.096|
0.15,0.15,0.17,0.11,0.023,0.18,0.048,0.18|
0.16,0.059,0.23,0.16,0.057,0.032,0.088,0.21|
0.23,0.16,0.1,0.059,0.16,0.16,0.037,0.086|
0.19,0.2,0.18,0.066,0.18,0.052,0.08,0.052|
0.026,0.24,0.16,0.051,0.088,0.1,0.17,0.17|
];
transition_y7=[
0.052,0.1,0.24,0.11,0.11,0.0093,0.24,0.13|
0.15,0.13,0.0098,0.095,0.16,0.23,0.21,0.011|
0.14,0.18,0.12,0.036,0.079,0.23,0.18,0.039|
0.016,0.2,0.23,0.16,0.028,0.17,0.11,0.086|
0.11,0.31,0.026,0.14,0.15,0.091,0.15,0.023|
0.074,0.1,0.047,0.064,0.25,0.14,0.25,0.076|
0.084,0.099,0.22,0.055,0.19,0.097,0.16,0.1|
0.033,0.13,0.083,0.088,0.22,0.18,0.088,0.18|
];
